157	32	4	70	
10	10	10	10

0	0	0	0	0	0	5	1	2	4	6	13
1	1	1	0	1	10	9	30	29	28	18	17	12	11	9	3
2	3	0	1	2	4	4	27	11	9	5
3	6	2	3	0	9	5	27	26	16	10	7
4	0	7	5	2	9	6	29	27	26	22	14	9
5	0	4	5	4	9	5	28	26	23	15	8
6	6	4	3	0	6	5	24	23	15	11	8
7	3	0	2	6	4	3	24	15	8
8	1	3	0	3	4	4	22	21	19	14
9	6	2	1	0	6	4	24	23	21	19
10	0	5	5	4	6	3	25	19	14
11	4	0	4	7	8	3	21	20	19
12	3	0	6	6	2	3	24	22	21
13	5	7	0	4	7	2	22	19
14	0	2	2	4	4	1	20
15	3	4	2	0	1	1	25
16	0	4	4	5	6	1	23
17	0	5	5	2	2	1	20
18	4	3	0	2	10	1	19
19	2	2	0	4	5	1	31
20	0	6	3	3	1	1	31
21	2	8	0	2	7	1	31
22	3	3	0	6	4	1	31
23	4	2	0	4	6	1	31
24	6	6	6	0	6	1	31
25	0	4	6	1	3	1	31
26	4	5	3	0	2	1	31
27	0	5	4	4	2	1	31
28	5	4	0	7	2	1	31
29	9	3	9	0	10	1	31
30	0	3	5	9	2	1	31
31	0	0	0	0	0	0
